12
1 6 1 2 3 4 5 6
2 2 3 3
2 5 50 10 20 20 20
3 6 100 110 120 130 140 150
4 5 100 50 100 100 50
5 11 2 5 17 8 13 7 7 2 3 17 4
2 5 36 22 27 38 37
3 6 10 22 19 25 15 2
4 9 18 34 20 33 39 27 28 19 2
5 8 21 28 31 38 31 22 36 3
3 13 101 100 11 205 36 65 29 95 68 168 145 39 25
4 15 17 52 43 41 201 234 59 32 296 26 38 29 152 383 311
